StudentsNr = 10;
InstructorsNr = 42;
DaysNr = 2;
SlotsPerDay = 60;
AvailabilitySlotsLenght = 60;
RoomNr = 2;
ProgrammNr = 2;
DegreeNr = 1;
RolesNr = 0;
CoursesNr = 5;
InstructorsProgramm = [{1}, {1, 2}, {2}, {2}, {2}, {2}, {2}, {1}, {1}, {1}, {1}, {2}, {1}, {2}, {1}, {2}, {2}, {1}, {1}, {2}, {1}, {2}, {1}, {1, 2}, {2}, {1, 2}, {2}, {1, 2}, {1, 2}, {1}, {1}, {1}, {1, 2}, {1}, {1}, {2}, {2}, {2}, {1}, {1}, {1, 2}, {1}];
InstructorRolesPerProgramm = array2d(1..ProgrammNr,{},[]);
InstructorsAvailability = [|1, 1, |0, 1, |1, 1, |0, 0, |1, 0, |1, 1, |1, 1, |0, 1, |0, 0, |1, 1, |0, 1, |0, 1, |0, 1, |0, 0, |1, 1, |1, 1, |1, 1, |0, 0, |1, 0, |1, 1, |0, 1, |1, 1, |1, 1, |1, 1, |0, 1, |1, 1, |1, 1, |0, 1, |1, 1, |1, 1, |1, 1, |0, 0, |0, 1, |0, 1, |1, 0, |1, 1, |0, 1, |1, 1, |1, 1, |1, 1, |0, 1, |0, 1|];
StudentsProgramm = [1, 1, 2, 2, 2, 2, 1, 1, 1, 2];
StudentsDegree = [1, 1, 1, 1, 1, 1, 1, 1, 1, 1];
StudentsSupervisorId = [41, 18, 2, 26, 6, 41, 8, 11, 1, 22];
StudentsCourseIds = [{1, 4}, {3, 4}, {2, 5}, {3, 5}, {2, 5}, {1, 4}, {2, 3}, {1, 2}, {3, 5}, {4, 5}];
StudentsAvailability = [|0, 0, |1, 1, |1, 0, |0, 0, |1, 1, |0, 1, |1, 1, |1, 1, |0, 1, |0, 0|];
TheoryticalMinCard = [2, 3, 2, 2, 3, 2, 2, 2, 2, 3];
CoursesInstructorIds = [{2, 3, 7, 10, 12, 14, 15, 17, 18, 20, 22, 23, 25, 30, 31, 32, 33, 34, 37, 38, 41}, {1, 3, 5, 7, 8, 10, 11, 12, 16, 19, 20, 21, 23, 24, 25, 29, 30, 32, 34, 35, 36, 38, 39, 40, 41, 42}, {3, 4, 5, 6, 11, 13, 14, 15, 16, 23, 24, 25, 27, 28, 30, 32, 33, 36, 37, 40, 41, 42}, {1}, {1, 2, 3, 4, 8, 10, 15, 18, 20, 21, 24, 25, 26, 27, 30, 31, 33, 36, 38, 39, 40, 41, 42}];
RolesDemands = [];
RolesContinuity = [];
ExamLen = [1, 1, 1, 1, 1, 1, 1, 1, 1, 1];
LunchTsMinLen = 1;
LunchStarts = [19..45, 90..93];
SupervisorAvailable = 0;
OptimalLunchLenght = [3, 1];
OptimalStartTs = [0, 0];
OptimalFinishTs = [1, 60];
MinimizeRooms = 400;
RolesSoftContinuity = array2d(1..2,{},[]);
SameDegreeInRoom = 0;
Mergeability = 2;
